NAME: Random_85_4
ELLAPSED_TIME_(ms): 1
TOUR_SIZE: 2546.5857
TOUR_SECTION
0
6
4
80
23
15
25
33
31
79
21
10
2
62
37
73
76
18
42
67
12
60
70
8
34
72
16
38
26
19
17
39
28
46
50
71
45
51
24
11
3
59
54
64
81
69
68
63
82
47
74
14
58
52
48
5
77
36
78
40
1
35
49
30
29
22
61
83
84
41
13
57
44
20
27
43
53
75
65
9
66
32
7
55
56
0
EOF
